
#######################################################################
#
#                 Cambridge Crystallographic Data Centre
#                                CCDC
#
#######################################################################
#
# If this CIF has been generated from an entry in the Cambridge
# Structural Database, then it will include bibliographic, chemical,
# crystal, experimental, refinement or atomic coordinate data resulting
# from the CCDC's data processing and validation procedures.
#
#######################################################################

data_CSD_CIF_TCHLBZ
_audit_creation_date 1971-12-31
_audit_creation_method CSD-ConQuest-V1
_database_code_CSD TCHLBZ
_database_code_depnum_ccdc_archive 'CCDC 1267860'
_chemical_formula_sum 'C6 H3 Cl3'
_chemical_formula_moiety
;
C6 H3 Cl3
;
_journal_coeditor_code "IUCr A02792"
_journal_coden_Cambridge 1
_journal_volume 13
_journal_year 1960
_journal_page_first 285
_journal_name_full 'Acta Crystallogr. '
loop_
_publ_author_name
"H.J.Milledge"
"L.M.Pant"
_chemical_name_systematic
;
1,3,5-Trichlorobenzene
;
_chemical_name_common
;
DrugBank: DB03836
;
_cell_volume    718.410
_exptl_special_details
;
Isomorphous with the tribromo analogue

;
_diffrn_ambient_temperature ?
_diffrn_special_details
;
The study was carried out at room temperature,in the range 283-303K

;
#These two values have been output from a single CSD field.
_refine_ls_R_factor_gt 0.084
_refine_ls_wR_factor_gt 0.084
_symmetry_cell_setting orthorhombic
_symmetry_space_group_name_H-M 'P 21 21 21'
_symmetry_Int_Tables_number 19
loop_
_symmetry_equiv_pos_site_id
_symmetry_equiv_pos_as_xyz
1 x,y,z
2 1/2+x,1/2-y,-z
3 -x,1/2+y,1/2-z
4 1/2-x,-y,1/2+z
_cell_length_a 13.93
_cell_length_b 13.19
_cell_length_c 3.91
_cell_angle_alpha 90
_cell_angle_beta 90
_cell_angle_gamma 90
_cell_formula_units_Z 4
loop_
_atom_type_symbol
_atom_type_radius_bond
C 0.68
H 0.20
Cl 0.99
loop_
_atom_site_label
_atom_site_type_symbol
_atom_site_fract_x
_atom_site_fract_y
_atom_site_fract_z
Cl1 Cl 0.34900 0.23360 -0.41600
Cl2 Cl 0.36260 0.63590 -0.31300
Cl3 Cl 0.65880 0.43390 -0.87100
C1 C 0.40860 0.34520 -0.47900
C2 C 0.36530 0.43380 -0.37800
C3 C 0.41630 0.52480 -0.43600
C4 C 0.50580 0.52450 -0.58400
C5 C 0.54740 0.43470 -0.68800
C6 C 0.49920 0.34410 -0.63200
H1 H 0.29500 0.43500 -0.26300
H2 H 0.54300 0.59600 -0.62600
H3 H 0.53200 0.27300 -0.71000
#END
