
#######################################################################
#
#                 Cambridge Crystallographic Data Centre
#                                CCDC
#
#######################################################################
#
# If this CIF has been generated from an entry in the Cambridge
# Structural Database, then it will include bibliographic, chemical,
# crystal, experimental, refinement or atomic coordinate data resulting
# from the CCDC's data processing and validation procedures.
#
#######################################################################

data_CSD_CIF_DNBENZ11
_audit_creation_date 2003-02-20
_audit_creation_method CSD-ConQuest-V1
_database_code_CSD DNBENZ11
_database_code_depnum_ccdc_archive 'CCDC 201615'
_chemical_formula_sum 'C6 H4 N2 O4'
_chemical_formula_moiety
;
C6 H4 N2 O4
;
_journal_coeditor_code "IUCr NS0009"
_journal_coden_Cambridge 622
_journal_volume 58
_journal_year 2002
_journal_page_first 998
_journal_name_full 'Acta Crystallogr.,Sect.B:Struct.Sci. '
loop_
_publ_author_name
"G.Wojcik"
"I.Mossakowska"
"J.Holband"
"W.Bartkowiak"
_chemical_name_systematic
;
1,3-Dinitrobenzene
;
_chemical_name_common
;
m-Dinitrobenzene
;
_chemical_melting_point 364
_cell_volume    679.746
_exptl_crystal_colour 'colorless'
_exptl_crystal_density_diffrn 1.643
_exptl_crystal_description 'prism'
_exptl_crystal_preparation 'methanol'
_diffrn_ambient_temperature 100.0
#These two values have been output from a single CSD field.
_refine_ls_R_factor_gt 0.0412
_refine_ls_wR_factor_gt 0.0412
_symmetry_cell_setting orthorhombic
_symmetry_space_group_name_H-M 'P n a 21'
_symmetry_Int_Tables_number 33
loop_
_symmetry_equiv_pos_site_id
_symmetry_equiv_pos_as_xyz
1 x,y,z
2 -x,-y,1/2+z
3 1/2+x,1/2-y,z
4 1/2-x,1/2+y,1/2+z
_cell_length_a 14.024(2)
_cell_length_b 13.182(2)
_cell_length_c 3.677(1)
_cell_angle_alpha 90
_cell_angle_beta 90
_cell_angle_gamma 90
_cell_formula_units_Z 4
loop_
_atom_type_symbol
_atom_type_radius_bond
C 0.68
H 0.23
N 0.68
O 0.68
loop_
_atom_site_label
_atom_site_type_symbol
_atom_site_fract_x
_atom_site_fract_y
_atom_site_fract_z
C1 C 0.13529(10) 0.63651(11) 0.0893(5)
C2 C 0.05064(10) 0.67924(12) -0.0312(5)
H1 H 0.00120 0.64020 -0.12540
C3 C 0.04439(10) 0.78380(12) -0.0025(5)
C4 C 0.11756(12) 0.84440(11) 0.1306(6)
H2 H 0.11040 0.91440 0.14630
C5 C 0.20157(11) 0.79778(12) 0.2396(6)
H3 H 0.25210 0.83710 0.32330
C6 C 0.21083(10) 0.69298(12) 0.2247(5)
H4 H 0.26640 0.66140 0.30370
N1 N 0.14534(10) 0.52547(10) 0.0758(5)
N2 N -0.04511(10) 0.83199(12) -0.1209(5)
O1 O 0.21261(10) 0.48722(10) 0.2385(6)
O2 O 0.08674(10) 0.47695(10) -0.0975(5)
O3 O -0.10001(9) 0.78134(12) -0.3058(5)
O4 O -0.06021(10) 0.91926(10) -0.0261(6)
#END
