
#######################################################################
#
#                 Cambridge Crystallographic Data Centre
#                                CCDC
#
#######################################################################
#
# If this CIF has been generated from an entry in the Cambridge
# Structural Database, then it will include bibliographic, chemical,
# crystal, experimental, refinement or atomic coordinate data resulting
# from the CCDC's data processing and validation procedures.
#
#######################################################################

data_CSD_CIF_UCEPEY
_audit_creation_date 2006-06-27
_audit_creation_method CSD-ConQuest-V1
_database_code_CSD UCEPEY
_database_code_depnum_ccdc_archive 'CCDC 261303'
_chemical_formula_sum 'C6 F3 I3'
_chemical_formula_moiety
;
C6 F3 I3
;
_journal_coden_Cambridge 1220
_journal_volume 12
_journal_year 2006
_journal_page_first 2222
_journal_name_full 'Chem.-Eur.J. '
loop_
_publ_author_name
"C.M.Reddy"
"M.T.Kirchner"
"R.C.Gundakaram"
"K.A.Padmanabhan"
"G.R.Desiraju"
_chemical_name_systematic
;
1,3,5-Trifluoro-2,4,6-tri-iodobenzene
;
_cell_volume    985.511
_exptl_crystal_colour 'colorless'
_exptl_crystal_density_diffrn 3.436
_exptl_special_details
;
P21/n polymorph

;
_exptl_crystal_description 'plate'
_diffrn_ambient_temperature 298
#These two values have been output from a single CSD field.
_refine_ls_R_factor_gt 0.0402
_refine_ls_wR_factor_gt 0.0402
_symmetry_cell_setting monoclinic
_symmetry_space_group_name_H-M 'P 21/n'
_symmetry_Int_Tables_number 14
loop_
_symmetry_equiv_pos_site_id
_symmetry_equiv_pos_as_xyz
1 x,y,z
2 1/2-x,1/2+y,1/2-z
3 -x,-y,-z
4 -1/2+x,-1/2-y,-1/2+z
_cell_length_a 13.931(6)
_cell_length_b 4.793(2)
_cell_length_c 15.475(6)
_cell_angle_alpha 90
_cell_angle_beta 107.491(7)
_cell_angle_gamma 90
_cell_formula_units_Z 4
loop_
_atom_type_symbol
_atom_type_radius_bond
C 0.68
F 0.64
I 1.40
loop_
_atom_site_label
_atom_site_type_symbol
_atom_site_fract_x
_atom_site_fract_y
_atom_site_fract_z
I1 I -0.14031(3) 0.50618(11) 0.28027(4)
I2 I 0.08589(4) -0.27742(13) 0.10904(4)
I3 I 0.22503(4) -0.09519(17) 0.51111(3)
F1 F -0.0753(3) 0.1493(11) 0.1371(3)
F2 F 0.0354(4) 0.2982(12) 0.4491(3)
F3 F 0.2078(3) -0.3178(12) 0.3155(3)
C1 C -0.0076(5) 0.1020(16) 0.2173(4)
C2 C 0.1252(5) -0.0108(17) 0.3848(4)
C3 C 0.1342(5) -0.1382(16) 0.3067(5)
C4 C -0.0211(5) 0.2318(16) 0.2923(5)
C5 C 0.0688(5) -0.0824(15) 0.2228(4)
C6 C 0.0471(5) 0.1736(16) 0.3754(4)
#END
