
#######################################################################
#
#                 Cambridge Crystallographic Data Centre
#                                CCDC
#
#######################################################################
#
# If this CIF has been generated from an entry in the Cambridge
# Structural Database, then it will include bibliographic, chemical,
# crystal, experimental, refinement or atomic coordinate data resulting
# from the CCDC's data processing and validation procedures.
#
#######################################################################

data_CSD_CIF_KAMQIZ
_audit_creation_date 2005-07-22
_audit_creation_method CSD-ConQuest-V1
_database_code_CSD KAMQIZ
_database_code_depnum_ccdc_archive 'CCDC 270322'
_chemical_formula_sum 'C7 H7 N1 O2 S1'
_chemical_formula_moiety
;
C7 H7 N1 O2 S1
;
_journal_coeditor_code "IUCr FL6150"
_journal_coden_Cambridge 1370
_journal_volume 61
_journal_year 2005
_journal_page_first o822
_journal_name_full 'Acta Crystallogr.,Sect.E:Struct.Rep.Online '
loop_
_publ_author_name
"S.Basavoju"
"C.M.Reddy"
"G.R.Desiraju"
_chemical_name_systematic
;
2-(Methylsulfanyl)nicotinic acid
;
_chemical_melting_point 489.0
_cell_volume    739.660
_exptl_crystal_colour 'colorless'
_exptl_crystal_density_diffrn 1.519
_exptl_crystal_description 'block'
_exptl_crystal_preparation 'dichloromethane'
_diffrn_ambient_temperature 298
#These two values have been output from a single CSD field.
_refine_ls_R_factor_gt 0.0706
_refine_ls_wR_factor_gt 0.0706
_symmetry_cell_setting monoclinic
_symmetry_space_group_name_H-M 'P 21/c'
_symmetry_Int_Tables_number 14
loop_
_symmetry_equiv_pos_site_id
_symmetry_equiv_pos_as_xyz
1 x,y,z
2 -x,1/2+y,1/2-z
3 -x,-y,-z
4 x,-1/2-y,-1/2+z
_cell_length_a 3.9834(10)
_cell_length_b 25.373(7)
_cell_length_c 7.465(2)
_cell_angle_alpha 90
_cell_angle_beta 101.380(4)
_cell_angle_gamma 90
_cell_formula_units_Z 4
loop_
_atom_type_symbol
_atom_type_radius_bond
C 0.68
H 0.23
N 0.68
O 0.68
S 1.02
loop_
_atom_site_label
_atom_site_type_symbol
_atom_site_fract_x
_atom_site_fract_y
_atom_site_fract_z
S1 S 0.3813(2) 0.34163(4) 0.37952(12)
O1 O 0.1700(7) 0.44260(11) 0.4572(3)
O2 O -0.2128(8) 0.49028(13) 0.2688(4)
N1 N 0.1442(9) 0.33262(12) 0.0244(4)
C1 C -0.0170(9) 0.41345(14) 0.1509(4)
C2 C -0.1943(10) 0.42809(16) -0.0213(5)
H1 H -0.31200 0.45990 -0.03620
C3 C 0.1507(8) 0.36425(15) 0.1674(5)
C4 C -0.0112(9) 0.44975(15) 0.3054(5)
C5 C -0.1972(10) 0.39582(17) -0.1699(5)
H2 H -0.31020 0.40540 -0.28650
C6 C 0.5264(11) 0.27830(17) 0.3177(6)
H3 H 0.33250 0.25590 0.27610
H4 H 0.67110 0.26260 0.42220
H5 H 0.65310 0.28260 0.22180
C7 C -0.0258(11) 0.34893(17) -0.1380(5)
H6 H -0.02830 0.32670 -0.23740
H7 H -0.186(11) 0.513(2) 0.344(7)
#END
