####################################################################### 
# 
# This file contains crystal structure data downloaded from the 
# Cambridge Structural Database (CSD) hosted by the Cambridge 
# Crystallographic Data Centre (CCDC).
# 
# Full information about CCDC data access policies and citation 
# guidelines are available at http://www.ccdc.cam.ac.uk/access/V1 
# 
# Audit and citation data items may have been added by the CCDC. 
# Please retain this information to preserve the provenance of 
# this file and to allow appropriate attribution of the data. 
# 
#######################################################################

data_Form-P-163k
_audit_block_doi                 10.5517/ccdc.csd.cc1z76cs
_database_code_depnum_ccdc_archive 'CCDC 1824175'
loop_
_citation_id
_citation_doi
_citation_year
1 10.1021/acs.cgd.8b00360 2018
loop_
_audit_author_name
_audit_author_address
'Binoy K. Saha' 'Pondicherry University'
_audit_update_record             
;
2018-02-15 deposited with the CCDC.	2025-08-05 downloaded from the CCDC.
;
_audit_creation_date             2017-12-22
_audit_creation_method           
;
Olex2 1.2
(compiled 2014.11.28 svn.r3106 for OlexSys, GUI svn.r4959)
;
_chemical_name_common            '4-chlorobenzonitrile (Form-P)'
_chemical_name_systematic        
;
 4-chlorobenzonitrile 
;
_chemical_formula_moiety         'C7 H4 Cl N'
_chemical_formula_sum            'C7 H4 Cl N'
_chemical_formula_weight         137.56
_chemical_absolute_configuration ad
_chemical_melting_point          ?
loop_
_atom_type_symbol
_atom_type_description
_atom_type_scat_dispersion_real
_atom_type_scat_dispersion_imag
_atom_type_scat_source
C C 0.0033 0.0016 'International Tables Vol C Tables 4.2.6.8 and 6.1.1.4'
H H 0.0000 0.0000 'International Tables Vol C Tables 4.2.6.8 and 6.1.1.4'
N N 0.0061 0.0033 'International Tables Vol C Tables 4.2.6.8 and 6.1.1.4'
Cl Cl 0.1484 0.1585 'International Tables Vol C Tables 4.2.6.8 and 6.1.1.4'

_space_group_crystal_system      monoclinic
_space_group_IT_number           7
_space_group_name_H-M_alt        'P 1 c 1'
_space_group_name_Hall           'P -2yc'
loop_
_space_group_symop_id
_space_group_symop_operation_xyz
1 'x, y, z'
2 'x, -y, z+1/2'

_cell_length_a                   3.9305(5)
_cell_length_b                   6.4692(8)
_cell_length_c                   12.4250(19)
_cell_angle_alpha                90.00
_cell_angle_beta                 90.121(12)
_cell_angle_gamma                90.00
_cell_volume                     315.93(8)
_cell_formula_units_Z            2
_cell_measurement_reflns_used    746
_cell_measurement_temperature    163
_cell_measurement_theta_max      29.0390
_cell_measurement_theta_min      3.5435
_exptl_absorpt_coefficient_mu    0.494
_exptl_absorpt_correction_T_max  1.00000
_exptl_absorpt_correction_T_min  0.27343
_exptl_absorpt_correction_type   multi-scan
_exptl_absorpt_process_details   
;
CrysAlisPro, Agilent Technologies,
Version 1.171.36.21 (release 14-08-2012 CrysAlis171 .NET)
(compiled Sep 14 2012,17:21:16)
Empirical absorption correction using spherical harmonics,
 implemented in SCALE3 ABSPACK scaling algorithm.
;
_exptl_crystal_colour            colourless
_exptl_crystal_colour_primary    colourless
_exptl_crystal_density_diffrn    1.446
_exptl_crystal_density_meas      ?
_exptl_crystal_density_method    'not measured'
_exptl_crystal_description       needle
_exptl_crystal_F_000             140
_exptl_crystal_preparation       ?
_exptl_crystal_size_max          0.8
_exptl_crystal_size_mid          0.42
_exptl_crystal_size_min          0.2
_exptl_special_details           
;
 ? 
;
_diffrn_reflns_av_R_equivalents  0.0375
_diffrn_reflns_av_unetI/netI     0.0590
_diffrn_reflns_limit_h_max       5
_diffrn_reflns_limit_h_min       -4
_diffrn_reflns_limit_k_max       8
_diffrn_reflns_limit_k_min       -8
_diffrn_reflns_limit_l_max       16
_diffrn_reflns_limit_l_min       -15
_diffrn_reflns_number            1784
_diffrn_reflns_theta_full        25.00
_diffrn_reflns_theta_max         29.10
_diffrn_reflns_theta_min         3.55
_diffrn_ambient_temperature      163
_diffrn_detector_area_resol_mean 15.9821
_diffrn_measured_fraction_theta_full 0.995
_diffrn_measured_fraction_theta_max 0.857
_diffrn_measurement_details      
;
#__ type_ start__ end____ width___ exp.time_
  1 omega   -4.00   23.00   1.0000    1.2000
omega____ theta____ kappa____ phi______ frames
    -      -17.4178 -103.0000   27.0000 27

#__ type_ start__ end____ width___ exp.time_
  2 omega  -19.00   13.00   1.0000    1.2000
omega____ theta____ kappa____ phi______ frames
    -      -17.4178 -103.0000 -130.0000 32

#__ type_ start__ end____ width___ exp.time_
  3 omega  -90.00  -42.00   1.0000    1.2000
omega____ theta____ kappa____ phi______ frames
    -      -17.4178 -178.0000   30.0000 48

#__ type_ start__ end____ width___ exp.time_
  4 omega  -48.00   61.00   1.0000    1.2000
omega____ theta____ kappa____ phi______ frames
    -       19.2147  -19.0000 -120.0000 109

#__ type_ start__ end____ width___ exp.time_
  5 omega   -2.00   88.00   1.0000    1.2000
omega____ theta____ kappa____ phi______ frames
    -       19.2147   57.0000    0.0000 90
;
_diffrn_measurement_device_type  'Xcalibur, Eos'
_diffrn_measurement_method       '\w scans'
_diffrn_orient_matrix_UB_11      -0.0281206000
_diffrn_orient_matrix_UB_12      -0.1065151000
_diffrn_orient_matrix_UB_13      0.0102253000
_diffrn_orient_matrix_UB_21      -0.0454754000
_diffrn_orient_matrix_UB_22      0.0234684000
_diffrn_orient_matrix_UB_23      0.0538634000
_diffrn_orient_matrix_UB_31      -0.1723431000
_diffrn_orient_matrix_UB_32      0.0112324000
_diffrn_orient_matrix_UB_33      -0.0159189000
_diffrn_radiation_monochromator  graphite
_diffrn_radiation_type           MoK\a
_diffrn_radiation_wavelength     0.71073
_diffrn_source                   'Enhance (Mo) X-ray Source'
_diffrn_standards_decay_%        ?
_diffrn_standards_interval_count ?
_diffrn_standards_interval_time  ?
_diffrn_standards_number         ?
_reflns_number_gt                1144
_reflns_number_total             1231
_reflns_threshold_expression     >2sigma(I)
_computing_cell_refinement       
;
CrysAlisPro, Agilent Technologies,
Version 1.171.36.21 (release 14-08-2012 CrysAlis171 .NET)
(compiled Sep 14 2012,17:21:16)
;
_computing_data_collection       
;
CrysAlisPro, Agilent Technologies,
Version 1.171.36.21 (release 14-08-2012 CrysAlis171 .NET)
(compiled Sep 14 2012,17:21:16)
;
_computing_data_reduction        
;
CrysAlisPro, Agilent Technologies,
Version 1.171.36.21 (release 14-08-2012 CrysAlis171 .NET)
(compiled Sep 14 2012,17:21:16)
;
_computing_molecular_graphics    'Olex2 (Dolomanov et al., 2009)'
_computing_publication_material  'Olex2 (Dolomanov et al., 2009)'
_computing_structure_refinement  'ShelXL (Sheldrick, 2008)'
_computing_structure_solution    'ShelXS (Sheldrick, 2008)'
_refine_diff_density_max         0.435
_refine_diff_density_min         -0.404
_refine_diff_density_rms         0.098
_refine_ls_abs_structure_details 'Flack H D (1983), Acta Cryst. A39, 876-881'
_refine_ls_abs_structure_Flack   0.10(17)
_refine_ls_extinction_coef       ?
_refine_ls_extinction_method     none
_refine_ls_goodness_of_fit_ref   1.076
_refine_ls_hydrogen_treatment    constr
_refine_ls_matrix_type           full
_refine_ls_number_parameters     82
_refine_ls_number_reflns         1231
_refine_ls_number_restraints     2
_refine_ls_R_factor_all          0.0769
_refine_ls_R_factor_gt           0.0735
_refine_ls_restrained_S_all      1.075
_refine_ls_shift/su_max          0.000
_refine_ls_shift/su_mean         0.000
_refine_ls_structure_factor_coef Fsqd
_refine_ls_weighting_details     
'calc w=1/[\s^2^(Fo^2^)+(0.1280P)^2^+0.0000P] where P=(Fo^2^+2Fc^2^)/3'
_refine_ls_weighting_scheme      calc
_refine_ls_wR_factor_gt          0.1842
_refine_ls_wR_factor_ref         0.1914
_refine_special_details          
;
 Refinement of F^2^ against ALL reflections.  The weighted R-factor wR and 
 goodness of fit S are based on F^2^, conventional R-factors R are based 
 on F, with F set to zero for negative F^2^. The threshold expression of 
 F^2^ > 2sigma(F^2^) is used only for calculating R-factors(gt) etc. and is 
 not relevant to the choice of reflections for refinement.  R-factors based 
 on F^2^ are statistically about twice as large as those based on F, and R- 
 factors based on ALL data will be even larger. 
;
_olex2_refinement_description    
;
1. Fixed Uiso
 At 1.2 times of:
  All C(H) groups
2.a Aromatic/amide H refined with riding coordinates:
 C2(H2), C3(H3), C5(H5), C6(H6)
;
_atom_sites_solution_hydrogens   geom
_atom_sites_solution_primary     direct
_atom_sites_solution_secondary   difmap
loop_
_atom_site_label
_atom_site_type_symbol
_atom_site_fract_x
_atom_site_fract_y
_atom_site_fract_z
_atom_site_U_iso_or_equiv
_atom_site_adp_type
_atom_site_occupancy
_atom_site_calc_flag
_atom_site_disorder_assembly
_atom_site_disorder_group
_atom_site_refinement_flags_posn
Cl1 Cl 0.5340(2) 0.30952(16) 0.55547(12) 0.0387(4) Uani 1 d . . .
C2 C 0.7912(15) 0.6891(7) 0.5192(5) 0.0366(12) Uani 1 d . . .
H2 H 0.7268 0.7208 0.5910 0.044 Uiso 1 calc . . R
C3 C 0.9529(14) 0.8359(7) 0.4543(5) 0.0370(12) Uani 1 d . . .
H3 H 1.0034 0.9690 0.4824 0.044 Uiso 1 calc . . R
C4 C 1.0399(12) 0.7881(7) 0.3491(4) 0.0297(10) Uani 1 d . . .
C7 C 1.1989(14) 0.9429(7) 0.2810(5) 0.0388(12) Uani 1 d . . .
C5 C 0.9776(14) 0.5913(8) 0.3083(5) 0.0350(10) Uani 1 d . . .
H5 H 1.0470 0.5570 0.2374 0.042 Uiso 1 calc . . R
N1 N 1.3207(14) 1.0675(8) 0.2300(5) 0.0501(12) Uani 1 d . . .
C1 C 0.7283(13) 0.4962(8) 0.4754(4) 0.0319(10) Uani 1 d . . .
C6 C 0.8138(13) 0.4453(8) 0.3716(4) 0.0345(11) Uani 1 d . . .
H6 H 0.7617 0.3124 0.3436 0.041 Uiso 1 calc . . R

loop_
_atom_site_aniso_label
_atom_site_aniso_U_11
_atom_site_aniso_U_22
_atom_site_aniso_U_33
_atom_site_aniso_U_23
_atom_site_aniso_U_13
_atom_site_aniso_U_12
Cl1 0.0393(6) 0.0369(6) 0.0400(6) 0.0050(5) 0.0054(4) -0.0013(5)
C2 0.041(3) 0.035(3) 0.034(3) -0.004(2) 0.002(2) 0.0031(19)
C3 0.045(3) 0.030(2) 0.037(3) -0.0056(19) 0.002(2) 0.005(2)
C4 0.023(2) 0.028(2) 0.038(3) 0.0023(18) -0.0004(19) 0.0025(17)
C7 0.037(3) 0.036(2) 0.044(3) -0.001(2) 0.001(2) 0.005(2)
C5 0.039(3) 0.035(2) 0.031(2) -0.005(2) 0.0007(18) 0.007(2)
N1 0.058(3) 0.038(2) 0.055(3) 0.003(2) 0.011(2) 0.000(2)
C1 0.031(2) 0.031(2) 0.034(3) 0.0001(19) 0.0004(18) 0.0060(18)
C6 0.038(3) 0.031(2) 0.034(3) -0.0029(19) -0.005(2) -0.0017(19)

_geom_special_details            
;
 All esds (except the esd in the dihedral angle between two l.s. planes) 
 are estimated using the full covariance matrix.  The cell esds are taken 
 into account individually in the estimation of esds in distances, angles 
 and torsion angles; correlations between esds in cell parameters are only 
 used when they are defined by crystal symmetry.  An approximate (isotropic) 
 treatment of cell esds is used for estimating esds involving l.s. planes. 
;
loop_
_geom_bond_atom_site_label_1
_geom_bond_atom_site_label_2
_geom_bond_distance
_geom_bond_site_symmetry_2
_geom_bond_publ_flag
Cl1 C1 1.742(5) . ?
C2 H2 0.9500 . ?
C2 C3 1.400(8) . ?
C2 C1 1.383(6) . ?
C3 H3 0.9500 . ?
C3 C4 1.387(8) . ?
C4 C7 1.453(7) . ?
C4 C5 1.392(7) . ?
C7 N1 1.132(7) . ?
C5 H5 0.9500 . ?
C5 C6 1.388(8) . ?
C1 C6 1.374(7) . ?
C6 H6 0.9500 . ?

loop_
_geom_angle_atom_site_label_1
_geom_angle_atom_site_label_2
_geom_angle_atom_site_label_3
_geom_angle
_geom_angle_site_symmetry_1
_geom_angle_site_symmetry_3
_geom_angle_publ_flag
C3 C2 H2 121.1 . . ?
C1 C2 H2 121.1 . . ?
C1 C2 C3 117.8(5) . . ?
C2 C3 H3 119.8 . . ?
C4 C3 C2 120.4(4) . . ?
C4 C3 H3 119.8 . . ?
C3 C4 C7 120.2(4) . . ?
C3 C4 C5 120.2(5) . . ?
C5 C4 C7 119.6(5) . . ?
N1 C7 C4 178.1(6) . . ?
C4 C5 H5 120.1 . . ?
C6 C5 C4 119.9(5) . . ?
C6 C5 H5 120.1 . . ?
C2 C1 Cl1 118.6(4) . . ?
C6 C1 Cl1 118.6(4) . . ?
C6 C1 C2 122.8(5) . . ?
C5 C6 H6 120.5 . . ?
C1 C6 C5 118.9(5) . . ?
C1 C6 H6 120.5 . . ?

_olex2_submission_special_instructions 'No special instructions were received'
