####################################################################### 
# 
# This file contains crystal structure data downloaded from the 
# Cambridge Structural Database (CSD) hosted by the Cambridge 
# Crystallographic Data Centre (CCDC).
# 
# Full information about CCDC data access policies and citation 
# guidelines are available at http://www.ccdc.cam.ac.uk/access/V1 
# 
# Audit and citation data items may have been added by the CCDC. 
# Please retain this information to preserve the provenance of 
# this file and to allow appropriate attribution of the data. 
# 
#######################################################################

data_PFBZCY
#This CIF has been generated from an entry in the Cambridge Structural Database
_database_code_depnum_ccdc_archive 'CCDC 1232148'
_database_code_CSD               PFBZCY
loop_
_citation_id
_citation_doi
_citation_year
1 10.1107/S0567740877012473 1977
_audit_creation_method           'Created from the CSD'
_audit_update_record             
;
2025-11-05 downloaded from the CCDC.
;
_database_code_NBS               521633
_chemical_formula_moiety         'C7 H4 F1 N1'
_chemical_name_systematic        p-Fluorobenzonitrile
_chemical_absolute_configuration unk
_diffrn_ambient_temperature      295
_exptl_crystal_density_diffrn    1.318
#These two values have been output from a single CSD field.
_refine_ls_R_factor_gt           0.063
_refine_ls_wR_factor_gt          0.063
_diffrn_radiation_probe          x-ray
_symmetry_cell_setting           triclinic
_symmetry_space_group_name_H-M   'P -1'
_symmetry_Int_Tables_number      2
_space_group_name_Hall           '-P 1'
loop_
_symmetry_equiv_pos_site_id
_symmetry_equiv_pos_as_xyz
1 x,y,z
2 -x,-y,-z
_cell_length_a                   6.559(2)
_cell_length_b                   12.191(3)
_cell_length_c                   3.869(1)
_cell_angle_alpha                96.18(2)
_cell_angle_beta                 97.23(2)
_cell_angle_gamma                90.30(3)
_cell_volume                     305.069
_chemical_melting_point          34deg.C
_cell_formula_units_Z            2
loop_
_atom_site_label
_atom_site_type_symbol
_atom_site_fract_x
_atom_site_fract_y
_atom_site_fract_z
C1 C 0.25390 0.33830 0.23800
C2 C 0.42320 0.27570 0.16720
C3 C 0.41940 0.16430 0.18710
C4 C 0.24650 0.11710 0.27750
C5 C 0.07770 0.17610 0.34870
C6 C 0.08080 0.28780 0.32950
C7 C 0.25680 0.45540 0.21610
N1 N 0.25830 0.54820 0.19810
F1 F 0.24450 0.00640 0.29750
H1 H 0.53910 0.31400 0.11520
H2 H 0.52720 0.11840 0.13490
H3 H -0.04530 0.13790 0.39090
H4 H -0.03000 0.33040 0.37470

#END
