
#######################################################################
#
#                 Cambridge Crystallographic Data Centre
#                                CCDC
#
#######################################################################
#
# If this CIF has been generated from an entry in the Cambridge
# Structural Database, then it will include bibliographic, chemical,
# crystal, experimental, refinement or atomic coordinate data resulting
# from the CCDC's data processing and validation procedures.
#
#######################################################################

data_CSD_CIF_ZIRZIN01
_audit_creation_date 2023-10-09
_audit_creation_method CSD-ConQuest-V1
_database_code_CSD ZIRZIN01
_database_code_depnum_ccdc_archive 'CCDC 2208985'
_chemical_formula_sum 'C8 H4 F3 N1 S1'
_chemical_formula_moiety
;
C8 H4 F3 N1 S1
;
_journal_coden_Cambridge 772
_journal_volume 19
_journal_year 2023
_journal_page_first 2206169
_journal_name_full 'Small '
loop_
_publ_author_name
"A.Hasija"
"A.J.Thompson"
"Lakhvir Singh"
"S.N.Megha"
"K.S.R.N.Mangalampalli"
"J.C.McMurtrie"
"M.Bhattacharjee"
"J.K.Clegg"
"D.Chopra"
_chemical_name_systematic
;
1-isothiocyanato-4-(trifluoromethyl)benzene
;
_cell_volume    822.039
_exptl_crystal_colour 'needles'
_exptl_crystal_density_diffrn 1.642
_exptl_special_details
;
Plastic deformation when bent, twisted, or coiled.

;
_diffrn_ambient_temperature 293
_diffrn_radiation_probe x-ray
_diffrn_source synchrotron
#These two values have been output from a single CSD field.
_refine_ls_R_factor_gt 0.2458
_refine_ls_wR_factor_gt 0.2458
_symmetry_cell_setting orthorhombic
_symmetry_space_group_name_H-M 'P n m a'
_symmetry_Int_Tables_number 62
loop_
_symmetry_equiv_pos_site_id
_symmetry_equiv_pos_as_xyz
1 x,y,z
2 1/2-x,-y,1/2+z
3 -x,1/2+y,-z
4 1/2+x,1/2-y,1/2-z
5 -x,-y,-z
6 -1/2+x,y,-1/2-z
7 x,-1/2-y,z
8 -1/2-x,-1/2+y,-1/2+z
_cell_length_a 9.934(2)
_cell_length_b 6.7140(13)
_cell_length_c 12.325(2)
_cell_angle_alpha 90
_cell_angle_beta 90
_cell_angle_gamma 90
_cell_formula_units_Z 4
loop_
_atom_type_symbol
_atom_type_radius_bond
C 0.68
H 0.23
F 0.64
N 0.68
S 1.02
loop_
_atom_site_label
_atom_site_type_symbol
_atom_site_fract_x
_atom_site_fract_y
_atom_site_fract_z
S1 S 0.5854(9) 0.25000 0.0500(5)
F1 F 0.6782(15) 0.4095(17) 0.7619(6)
N1 N 0.560(4) 0.25000 0.2723(15)
C1 C 0.616(4) 0.25000 0.7261(18)
C2 C 0.598(4) 0.25000 0.6066(19)
F2 F 0.498(2) 0.25000 0.7797(11)
C3 C 0.714(4) 0.25000 0.5407(16)
H1 H 0.79801 0.25000 0.57427
C4 C 0.709(3) 0.25000 0.4363(14)
H2 H 0.78891 0.25000 0.39680
C5 C 0.464(3) 0.25000 0.4491(14)
H3 H 0.37832 0.25000 0.41789
C6 C 0.585(4) 0.25000 0.3807(19)
C7 C 0.581(4) 0.25000 0.174(2)
C8 C 0.478(5) 0.25000 0.554(2)
H4 H 0.40006 0.25000 0.59562
F1F F 0.6782(15) 0.0905(17) 0.7619(6)
#END
