
#######################################################################
#
#                 Cambridge Crystallographic Data Centre
#                                CCDC
#
#######################################################################
#
# If this CIF has been generated from an entry in the Cambridge
# Structural Database, then it will include bibliographic, chemical,
# crystal, experimental, refinement or atomic coordinate data resulting
# from the CCDC's data processing and validation procedures.
#
#######################################################################

data_CSD_CIF_UCECAG02
_audit_creation_date 2005-09-27
_audit_creation_method CSD-ConQuest-V1
_database_code_CSD UCECAG02
_database_code_depnum_ccdc_archive 'CCDC 260456'
_chemical_formula_sum 'C6 H4 Cl1 N3 O4'
_chemical_formula_moiety
;
C6 H4 Cl1 N3 O4
;
_journal_coden_Cambridge 182
_journal_year 2005
_journal_page_first 2439
_journal_name_full 'Chem.Commun. '
loop_
_publ_author_name
"C.M.Reddy"
"S.Basavoju"
"G.R.Desiraju"
_chemical_name_systematic
;
6-Chloro-2,4-dinitroaniline
;
_chemical_melting_point 432
_cell_volume    397.042
_exptl_crystal_colour 'yellow'
_exptl_crystal_density_diffrn 1.82
_exptl_special_details
;
polymorph II

;
_exptl_crystal_description 'needle'
_exptl_crystal_preparation 'dichloromethane'
_diffrn_ambient_temperature 100
#These two values have been output from a single CSD field.
_refine_ls_R_factor_gt 0.0385
_refine_ls_wR_factor_gt 0.0385
_symmetry_cell_setting monoclinic
_symmetry_space_group_name_H-M 'P 21'
_symmetry_Int_Tables_number 4
loop_
_symmetry_equiv_pos_site_id
_symmetry_equiv_pos_as_xyz
1 x,y,z
2 -x,1/2+y,-z
_cell_length_a 8.1619(18)
_cell_length_b 3.6646(8)
_cell_length_c 13.278(3)
_cell_angle_alpha 90
_cell_angle_beta 91.310(3)
_cell_angle_gamma 90
_cell_formula_units_Z 2
loop_
_atom_type_symbol
_atom_type_radius_bond
C 0.68
H 0.23
Cl 0.99
N 0.68
O 0.68
loop_
_atom_site_label
_atom_site_type_symbol
_atom_site_fract_x
_atom_site_fract_y
_atom_site_fract_z
C1 C 0.8357(3) 0.8047(7) 0.7116(2)
C2 C 0.7135(3) 0.6519(7) 0.6466(2)
C3 C 0.5638(3) 0.5344(7) 0.68156(19)
C4 C 0.5320(3) 0.5651(6) 0.7808(2)
C5 C 0.6467(3) 0.7065(8) 0.8494(2)
C6 C 0.7937(3) 0.8201(7) 0.8147(2)
Cl1 Cl 0.93843(7) 0.99266(17) 0.89833(4)
N1 N 0.9809(3) 0.9268(7) 0.68336(19)
N2 N 0.7409(3) 0.6038(6) 0.54078(17)
N3 N 0.3760(3) 0.4395(7) 0.81747(16)
O1 O 0.8620(2) 0.7495(6) 0.50430(15)
O2 O 0.6451(2) 0.4201(6) 0.49102(14)
O3 O 0.2800(2) 0.2969(7) 0.75642(16)
O4 O 0.3476(2) 0.4736(9) 0.90674(14)
H1 H 1.048(3) 0.996(11) 0.731(2)
H2 H 1.006(4) 0.911(10) 0.619(2)
H3 H 0.48600 0.43550 0.63720
H4 H 0.62330 0.72300 0.91750
#END
