
#######################################################################
#
#                 Cambridge Crystallographic Data Centre
#                                CCDC
#
#######################################################################
#
# If this CIF has been generated from an entry in the Cambridge
# Structural Database, then it will include bibliographic, chemical,
# crystal, experimental, refinement or atomic coordinate data resulting
# from the CCDC's data processing and validation procedures.
#
#######################################################################

data_CSD_CIF_CAMWAQ01
_audit_creation_date 2019-01-08
_audit_creation_method CSD-ConQuest-V1
_database_code_CSD CAMWAQ01
_database_code_depnum_ccdc_archive 'CCDC 1865362'
_chemical_formula_sum 'C16 H8 N2'
_chemical_formula_moiety
;
C16 H8 N2
;
_journal_coden_Cambridge 179
_journal_volume 57
_journal_year 2018
_journal_page_first 17254
_journal_name_full 'Angew.Chem.,Int.Ed. '
loop_
_publ_author_name
"L.Catalano"
"D.P.Karothu"
"S.Schramm"
"E.Ahmed"
"R.Rezgui"
"T.J.Barber"
"A.Famulari"
"P.Naumov"
_chemical_name_systematic
;
anthracene-9,10-dicarbonitrile
;
_chemical_name_common
;
9,10-anthracenedicarbonitrile
;
_cell_volume    282.853
_exptl_crystal_colour 'yellow'
_exptl_crystal_density_diffrn 1.34
_exptl_crystal_description 'needle'
_exptl_crystal_preparation 'toluene/water'
_diffrn_ambient_temperature 290
#These two values have been output from a single CSD field.
_refine_ls_R_factor_gt 0.0428
_refine_ls_wR_factor_gt 0.0428
_symmetry_cell_setting triclinic
_symmetry_space_group_name_H-M 'P -1'
_symmetry_Int_Tables_number 2
loop_
_symmetry_equiv_pos_site_id
_symmetry_equiv_pos_as_xyz
1 x,y,z
2 -x,-y,-z
_cell_length_a 3.887(9)
_cell_length_b 8.524(18)
_cell_length_c 9.21(2)
_cell_angle_alpha 71.60(6)
_cell_angle_beta 78.59(12)
_cell_angle_gamma 90.84(6)
_cell_formula_units_Z 1
loop_
_atom_type_symbol
_atom_type_radius_bond
C 0.68
H 0.23
N 0.68
loop_
_atom_site_label
_atom_site_type_symbol
_atom_site_fract_x
_atom_site_fract_y
_atom_site_fract_z
N1 N 0.3270(4) 0.19450(16) -0.73309(15)
C1 C -0.0644(4) 0.15446(16) -0.17991(16)
H1 H -0.20270 0.05520 -0.12730
C2 C 0.0795(3) 0.19375(15) -0.33602(15)
H2 H 0.03980 0.12050 -0.38860
C3 C 0.2902(3) 0.34606(14) -0.41944(14)
C4 C 0.4421(3) 0.39219(14) -0.58144(14)
C5 C 0.6499(3) 0.54269(15) -0.66408(14)
C6 C 1.0048(4) 0.73641(18) -0.90286(16)
H3 H 1.10440 0.76490 -1.00920
C7 C 0.3783(3) 0.27998(16) -0.66639(15)
C8 C 0.8032(3) 0.59017(17) -0.82812(15)
H4 H 0.76470 0.52050 -0.88430
N1A N 0.6730(4) 0.80550(16) -0.26691(15)
C1A C 1.0644(4) 0.84554(16) -0.82009(16)
H1A H 1.20270 0.94480 -0.87270
C2A C 0.9205(3) 0.80625(15) -0.66398(15)
H2A H 0.96020 0.87950 -0.61140
C3A C 0.7098(3) 0.65394(14) -0.58056(14)
C4A C 0.5579(3) 0.60781(14) -0.41856(14)
C5A C 0.3501(3) 0.45731(15) -0.33592(14)
C6A C -0.0048(4) 0.26359(18) -0.09714(16)
H3A H -0.10440 0.23510 0.00920
C7A C 0.6217(3) 0.72002(16) -0.33361(15)
C8A C 0.1968(3) 0.40983(17) -0.17188(15)
H4A H 0.23530 0.47950 -0.11570
#END
