
#######################################################################
#
#                 Cambridge Crystallographic Data Centre
#                                CCDC
#
#######################################################################
#
# If this CIF has been generated from an entry in the Cambridge
# Structural Database, then it will include bibliographic, chemical,
# crystal, experimental, refinement or atomic coordinate data resulting
# from the CCDC's data processing and validation procedures.
#
#######################################################################

data_CSD_CIF_AQAQOZ
_audit_creation_date 2011-06-16
_audit_creation_method CSD-ConQuest-V1
_database_code_CSD AQAQOZ
_database_code_depnum_ccdc_archive 'CCDC 824959'
_database_code_depnum_ccdc_journal 1267/3313
_chemical_formula_sum 'C13 H10 Cl2 N2 O1'
_chemical_formula_moiety
;
C13 H10 Cl2 N2 O1
;
_journal_coden_Cambridge 1267
_journal_volume 226
_journal_year 2011
_journal_page_first 35
_journal_name_full 'Z.Kristallogr.-New Cryst.Struct. '
loop_
_publ_author_name
"Ping Wang"
"Qi-Lin Li"
"Qiong Ruan"
"Yong-Qing Su"
_chemical_name_systematic
;
2,4-Dichloro-6-[(6-methylpyridin-2-ylimino)methyl]phenol
;
_cell_volume   1261.357
_exptl_crystal_colour 'yellow'
_exptl_crystal_density_diffrn 1.48
_exptl_crystal_description 'block'
_diffrn_ambient_temperature 298
#These two values have been output from a single CSD field.
_refine_ls_R_factor_gt 0.0415
_refine_ls_wR_factor_gt 0.0415
_symmetry_cell_setting monoclinic
_symmetry_space_group_name_H-M 'P 2/c'
_symmetry_Int_Tables_number 13
loop_
_symmetry_equiv_pos_site_id
_symmetry_equiv_pos_as_xyz
1 x,y,z
2 -x,y,1/2-z
3 -x,-y,-z
4 x,-y,-1/2+z
_cell_length_a 14.603(3)
_cell_length_b 4.323(2)
_cell_length_c 20.445(3)
_cell_angle_alpha 90
_cell_angle_beta 102.234(2)
_cell_angle_gamma 90
_cell_formula_units_Z 4
loop_
_atom_type_symbol
_atom_type_radius_bond
C 0.68
H 0.23
Cl 0.99
N 0.68
O 0.68
loop_
_atom_site_label
_atom_site_type_symbol
_atom_site_fract_x
_atom_site_fract_y
_atom_site_fract_z
Cl1 Cl 0.09187(4) 0.09943(17) 0.31694(3)
Cl2 Cl 0.46825(4) 0.04455(17) 0.39328(3)
N1 N 0.19457(12) 0.8035(4) 0.53578(8)
N2 N 0.27990(11) 1.1055(4) 0.62510(8)
O1 O 0.10474(10) 0.4870(4) 0.43531(7)
H1 H 0.11190 0.60820 0.46680
C1 C 0.27246(14) 0.4808(5) 0.4703(1)
C2 C 0.18807(14) 0.3935(5) 0.42637(10)
C3 C 0.19423(15) 0.2024(5) 0.37216(10)
C4 C 0.27896(15) 0.0959(5) 0.36185(10)
H2 H 0.28130 -0.03080 0.32550
C5 C 0.36088(14) 0.1803(5) 0.40645(11)
C6 C 0.35820(15) 0.3692(5) 0.45993(10)
H3 H 0.41360 0.42320 0.48940
C7 C 0.27143(15) 0.6893(5) 0.52527(10)
H4 H 0.32770 0.74220 0.55380
C8 C 0.19657(14) 1.0139(5) 0.58951(10)
C9 C 0.11171(16) 1.1140(5) 0.60180(11)
H5 H 0.05530 1.04660 0.57540
C10 C 0.11297(16) 1.3158(6) 0.65401(12)
H6 H 0.05730 1.38750 0.66370
C11 C 0.19801(17) 1.4098(5) 0.69159(11)
H7 H 0.20020 1.54460 0.72730
C12 C 0.28054(15) 1.3029(5) 0.67609(10)
C13 C 0.37506(16) 1.4038(6) 0.71425(12)
H8 H 0.41280 1.22500 0.72910
H9 H 0.36790 1.52390 0.75230
H10 H 0.40500 1.52700 0.68580
#END
